  50 

  28  11  42  17  12  47  49  15   1  46  47  28  33  25  11   5  45  44  17   6   5  17  10  10  45  46  16   4  35  41  23  26  22  49  48   7  22  27  26  33  35  30   3  26  47  28  47  16   5   8

 490

  19  23   5  19   6   7  22   4  17  10   1   1  20   7  20  24   7  18  14   3   8  14   2  10  16  15  25   6  13   3   4   3  18   6   6  20  16  13  16  20  10   9  17  16  15   6   5   1  19  17

